p cnf 242 364
-122 117 0
-122 118 0
122 -117 -118 0
-123 115 0
-123 116 0
123 -115 -116 0
-124 107 0
-124 108 0
124 -107 -108 0
-125 105 0
-125 106 0
125 -105 -106 0
-126 101 0
-126 102 0
126 -101 -102 0
-127 95 0
-127 96 0
127 -95 -96 0
-128 91 0
-128 92 0
128 -91 -92 0
-129 83 0
-129 84 0
129 -83 -84 0
-130 79 0
-130 80 0
130 -79 -80 0
-131 77 0
-131 78 0
131 -77 -78 0
-132 75 0
-132 76 0
132 -75 -76 0
-133 71 0
-133 72 0
133 -71 -72 0
-134 69 0
-134 70 0
134 -69 -70 0
-135 67 0
-135 68 0
135 -67 -68 0
-136 61 0
-136 62 0
136 -61 -62 0
-137 63 0
-137 64 0
137 -63 -64 0
-138 -136 0
-138 -137 0
138 136 137 0
-139 65 0
-139 66 0
139 -65 -66 0
-140 138 0
-140 -139 0
140 -138 139 0
-141 -135 0
-141 140 0
141 135 -140 0
-142 -134 0
-142 141 0
142 134 -141 0
-143 -133 0
-143 142 0
143 133 -142 0
-144 73 0
-144 74 0
144 -73 -74 0
-145 143 0
-145 -144 0
145 -143 144 0
-146 -132 0
-146 145 0
146 132 -145 0
-147 -131 0
-147 146 0
147 131 -146 0
-148 -130 0
-148 147 0
148 130 -147 0
-149 81 0
-149 82 0
149 -81 -82 0
-150 148 0
-150 -149 0
150 -148 149 0
-151 -129 0
-151 150 0
151 129 -150 0
-152 85 0
-152 86 0
152 -85 -86 0
-153 151 0
-153 -152 0
153 -151 152 0
-154 87 0
-154 88 0
154 -87 -88 0
-155 153 0
-155 -154 0
155 -153 154 0
-156 89 0
-156 90 0
156 -89 -90 0
-157 155 0
-157 -156 0
157 -155 156 0
-158 -128 0
-158 157 0
158 128 -157 0
-159 93 0
-159 94 0
159 -93 -94 0
-160 158 0
-160 -159 0
160 -158 159 0
-161 -127 0
-161 160 0
161 127 -160 0
-162 97 0
-162 98 0
162 -97 -98 0
-163 161 0
-163 -162 0
163 -161 162 0
-164 99 0
-164 100 0
164 -99 -100 0
-165 163 0
-165 -164 0
165 -163 164 0
-166 -126 0
-166 165 0
166 126 -165 0
-167 103 0
-167 104 0
167 -103 -104 0
-168 166 0
-168 -167 0
168 -166 167 0
-169 -125 0
-169 168 0
169 125 -168 0
-170 -124 0
-170 169 0
170 124 -169 0
-171 109 0
-171 110 0
171 -109 -110 0
-172 170 0
-172 -171 0
172 -170 171 0
-173 111 0
-173 112 0
173 -111 -112 0
-174 172 0
-174 -173 0
174 -172 173 0
-175 113 0
-175 114 0
175 -113 -114 0
-176 174 0
-176 -175 0
176 -174 175 0
-177 -123 0
-177 176 0
177 123 -176 0
-178 -122 0
-178 177 0
178 122 -177 0
-179 119 0
-179 120 0
179 -119 -120 0
-180 178 0
-180 -179 0
180 -178 179 0
-181 -121 0
-181 -180 0
181 121 180 0
-182 59 0
-182 60 0
182 -59 -60 0
-183 57 0
-183 58 0
183 -57 -58 0
-184 55 0
-184 56 0
184 -55 -56 0
-185 47 0
-185 48 0
185 -47 -48 0
-186 45 0
-186 46 0
186 -45 -46 0
-187 41 0
-187 42 0
187 -41 -42 0
-188 39 0
-188 40 0
188 -39 -40 0
-189 35 0
-189 36 0
189 -35 -36 0
-190 33 0
-190 34 0
190 -33 -34 0
-191 31 0
-191 32 0
191 -31 -32 0
-192 25 0
-192 26 0
192 -25 -26 0
-193 21 0
-193 22 0
193 -21 -22 0
-194 15 0
-194 16 0
194 -15 -16 0
-195 13 0
-195 14 0
195 -13 -14 0
-196 9 0
-196 10 0
196 -9 -10 0
-197 7 0
-197 8 0
197 -7 -8 0
-198 5 0
-198 6 0
198 -5 -6 0
-199 3 0
-199 4 0
199 -3 -4 0
-200 1 0
-200 2 0
200 -1 -2 0
-201 -199 0
-201 -200 0
201 199 200 0
-202 -198 0
-202 201 0
202 198 -201 0
-203 -197 0
-203 202 0
203 197 -202 0
-204 -196 0
-204 203 0
204 196 -203 0
-205 11 0
-205 12 0
205 -11 -12 0
-206 204 0
-206 -205 0
206 -204 205 0
-207 -195 0
-207 206 0
207 195 -206 0
-208 -194 0
-208 207 0
208 194 -207 0
-209 17 0
-209 18 0
209 -17 -18 0
-210 208 0
-210 -209 0
210 -208 209 0
-211 19 0
-211 20 0
211 -19 -20 0
-212 210 0
-212 -211 0
212 -210 211 0
-213 -193 0
-213 212 0
213 193 -212 0
-214 23 0
-214 24 0
214 -23 -24 0
-215 213 0
-215 -214 0
215 -213 214 0
-216 -192 0
-216 215 0
216 192 -215 0
-217 27 0
-217 28 0
217 -27 -28 0
-218 216 0
-218 -217 0
218 -216 217 0
-219 29 0
-219 30 0
219 -29 -30 0
-220 218 0
-220 -219 0
220 -218 219 0
-221 -191 0
-221 220 0
221 191 -220 0
-222 -190 0
-222 221 0
222 190 -221 0
-223 -189 0
-223 222 0
223 189 -222 0
-224 37 0
-224 38 0
224 -37 -38 0
-225 223 0
-225 -224 0
225 -223 224 0
-226 -188 0
-226 225 0
226 188 -225 0
-227 -187 0
-227 226 0
227 187 -226 0
-228 43 0
-228 44 0
228 -43 -44 0
-229 227 0
-229 -228 0
229 -227 228 0
-230 -186 0
-230 229 0
230 186 -229 0
-231 -185 0
-231 230 0
231 185 -230 0
-232 49 0
-232 50 0
232 -49 -50 0
-233 231 0
-233 -232 0
233 -231 232 0
-234 51 0
-234 52 0
234 -51 -52 0
-235 233 0
-235 -234 0
235 -233 234 0
-236 53 0
-236 54 0
236 -53 -54 0
-237 235 0
-237 -236 0
237 -235 236 0
-238 -184 0
-238 237 0
238 184 -237 0
-239 -183 0
-239 238 0
239 183 -238 0
-240 -182 0
-240 239 0
240 182 -239 0
-241 121 0
-241 -240 0
241 -121 240 0
-242 -181 0
-242 -241 0
242 181 241 0
-242 0
